solution status: optimal solution found
objective value:                     168160.499999987
d11(0,0)                                            1 	(obj:0)
d11(1,1)                                            1 	(obj:0)
d11(1,2)                                            1 	(obj:0)
d11(2,4)                                            1 	(obj:0)
d11(2,5)                                            1 	(obj:0)
d11(2,6)                                            1 	(obj:0)
d11(2,7)                                            1 	(obj:0)
d11(2,8)                                            1 	(obj:0)
d11(2,9)                                            1 	(obj:0)
d11(2,10)                                           1 	(obj:0)
d11(2,11)                                           1 	(obj:0)
d11(2,12)                                           1 	(obj:0)
d11(3,13)                                           1 	(obj:0)
d11(3,14)                                           1 	(obj:0)
d11(3,15)                                           1 	(obj:0)
d11(3,16)                                           1 	(obj:0)
d11(3,17)                                           1 	(obj:0)
d11(3,18)                                           1 	(obj:0)
d11(3,19)                                           1 	(obj:0)
d11(3,20)                                           1 	(obj:0)
d11(3,21)                                           1 	(obj:0)
d11(3,22)                                           1 	(obj:0)
d11(3,23)                                           1 	(obj:0)
d11(3,24)                                           1 	(obj:0)
d11(3,25)                                           1 	(obj:0)
d11(3,26)                                           1 	(obj:0)
d11(3,28)                                           1 	(obj:0)
d11(3,29)                                           1 	(obj:0)
d11(3,30)                                           1 	(obj:0)
d11(3,31)                                           1 	(obj:0)
d11(3,32)                                           1 	(obj:0)
d11(3,33)                                           1 	(obj:0)
d11(3,34)                                           1 	(obj:0)
d11(3,35)                                           1 	(obj:0)
d11(3,36)                                           1 	(obj:0)
d11(3,37)                                           1 	(obj:0)
d11(3,38)                                           1 	(obj:0)
d11(3,39)                                           1 	(obj:0)
d21(3,13)                                           1 	(obj:0)
d21(3,14)                                           1 	(obj:0)
d21(3,15)                                           1 	(obj:0)
d21(3,16)                                           1 	(obj:0)
d21(3,17)                                           1 	(obj:0)
d21(3,19)                                           1 	(obj:0)
d21(3,22)                                           1 	(obj:0)
d21(3,23)                                           1 	(obj:0)
d21(3,25)                                           1 	(obj:0)
d21(3,31)                                           1 	(obj:0)
STE(1,1)                             8120.76436339868 	(obj:0)
STE(0,0)                                        11025 	(obj:0)
STE(1,2)                             9117.53036673199 	(obj:0)
STE(1,3)                                        10143 	(obj:0)
STE(2,4)                             1208.42019666679 	(obj:0)
STE(2,5)                             2205.18620000008 	(obj:0)
STE(2,6)                             3422.63840333345 	(obj:0)
STE(2,7)                              2205.1862000001 	(obj:0)
STE(2,8)                             3201.95220333339 	(obj:0)
STE(2,9)                             4419.40440666673 	(obj:0)
STE(2,10)                            3230.65583326811 	(obj:0)
STE(2,11)                             4227.4218366014 	(obj:0)
STE(2,12)                            5444.87403993478 	(obj:0)
STE(3,13)                            -1887.7980099999 	(obj:0)
STE(3,14)                           -891.032006666606 	(obj:0)
STE(3,15)                            326.420196666786 	(obj:0)
STE(3,16)                           -891.032006666606 	(obj:0)
STE(3,17)                            105.733996666685 	(obj:0)
STE(3,18)                            1323.18620000012 	(obj:0)
STE(3,19)                            326.420196666772 	(obj:0)
STE(3,20)                            1323.18620000006 	(obj:0)
STE(3,21)                            2540.63840333345 	(obj:0)
STE(3,22)                           -891.032006666581 	(obj:0)
STE(3,23)                             105.73399666671 	(obj:0)
STE(3,24)                             1323.1862000001 	(obj:0)
STE(3,25)                             105.73399666671 	(obj:0)
STE(3,26)                                      1102.5 	(obj:0)
STE(3,27)                            2319.95220333339 	(obj:0)
STE(3,28)                            1323.18620000004 	(obj:0)
STE(3,29)                             2319.9522033333 	(obj:0)
STE(3,30)                            3537.40440666668 	(obj:0)
STE(3,31)                            134.437626601426 	(obj:0)
STE(3,32)                            1131.20362993472 	(obj:0)
STE(3,33)                             2348.6558332681 	(obj:0)
STE(3,34)                            1131.20362993472 	(obj:0)
STE(3,35)                            2127.96963326801 	(obj:0)
STE(3,36)                            3345.42183660144 	(obj:0)
STE(3,37)                             2348.6558332681 	(obj:0)
STE(3,38)                            3345.42183660139 	(obj:0)
STE(3,39)                            4562.87403993471 	(obj:0)
y1(3,23)                             1095.70698300005 	(obj:0)
y1(3,25)                             1992.79638600001 	(obj:0)
y1(3,26)                             1095.70698300005 	(obj:0)
y1(3,28)                             1992.79638600001 	(obj:0)
y1(3,29)                             1095.70698300005 	(obj:0)
y1(3,31)                             1992.79638600001 	(obj:0)
y1(3,32)                             1095.70698300005 	(obj:0)
y1(3,34)                             1992.79638600001 	(obj:0)
y1(3,35)                             1095.70698300005 	(obj:0)
y1(3,37)                             1992.79638600001 	(obj:0)
y1(3,38)                             1095.70698300005 	(obj:0)
BG(3)                                1204.56299667524 	(obj:10)
AVE(1)                               3199.95851117552 	(obj:0)
AVE(2)                               3265.15049132519 	(obj:0)
AVE(3)                               3291.35535332476 	(obj:0)
WG(1)                                3199.95851117552 	(obj:10)
WG(2)                                3265.15049132519 	(obj:10)
WG(3)                                3291.35535332476 	(obj:10)
BG(1)                                1119.64931529507 	(obj:10)
BG(2)                                4735.37333220408 	(obj:10)
y1(1,1)                              1820.01207294119 	(obj:0)
y1(1,2)                              922.922669941207 	(obj:0)
y1(2,4)                               5427.3097500587 	(obj:0)
y1(2,5)                              4530.22034705874 	(obj:0)
y1(2,6)                               3434.5133640587 	(obj:0)
y1(2,7)                               5427.3097500587 	(obj:0)
y1(2,8)                              4530.22034705874 	(obj:0)
y1(2,9)                              3434.51336405879 	(obj:0)
y1(2,10)                              5427.3097500587 	(obj:0)
y1(2,11)                             4530.22034705874 	(obj:0)
y1(2,12)                              3434.5133640587 	(obj:0)
y1(3,13)                             1992.79638600001 	(obj:0)
y1(3,14)                             1095.70698300005 	(obj:0)
y1(3,16)                             1992.79638600001 	(obj:0)
y1(3,17)                             1095.70698300005 	(obj:0)
y1(3,19)                             1992.79638600001 	(obj:0)
y1(3,20)                             1095.70698300005 	(obj:0)
y1(3,22)                             1992.79638600001 	(obj:0)
